benchmarks_CP/INST_36x36/20/inst36x36_20_71.dzn
S=6;
start=[|
-1,	-1,	-1,	-1,	-1,	-1,	-1,	-1,	-1,	-1,	-1,	16,	-1,	-1,	-1,	-1,	-1,	-1,	-1,	-1,	-1,	34,	-1,	13,	-1,	-1,	-1,	-1,	24,	-1,	12,	-1,	-1,	-1,	-1,	19|
6,	-1,	-1,	-1,	-1,	-1,	-1,	-1,	-1,	-1,	27,	-1,	-1,	28,	-1,	-1,	-1,	-1,	23,	-1,	-1,	33,	-1,	12,	-1,	-1,	-1,	1,	-1,	2,	21,	-1,	-1,	-1,	-1,	-1|
-1,	-1,	-1,	-1,	-1,	-1,	-1,	35,	5,	-1,	-1,	-1,	-1,	10,	-1,	27,	-1,	-1,	9,	17,	18,	-1,	-1,	24,	-1,	-1,	4,	-1,	-1,	12,	23,	-1,	-1,	-1,	-1,	-1|
-1,	-1,	-1,	-1,	-1,	-1,	-1,	-1,	-1,	17,	25,	-1,	-1,	-1,	26,	-1,	-1,	-1,	-1,	-1,	-1,	-1,	-1,	-1,	-1,	-1,	-1,	-1,	-1,	-1,	-1,	-1,	-1,	-1,	-1,	-1|
-1,	-1,	23,	27,	-1,	-1,	-1,	-1,	-1,	-1,	2,	-1,	9,	-1,	-1,	-1,	-1,	-1,	-1,	-1,	-1,	30,	-1,	26,	17,	-1,	-1,	-1,	-1,	13,	-1,	-1,	-1,	25,	-1,	35|
-1,	-1,	-1,	-1,	-1,	-1,	-1,	-1,	-1,	-1,	-1,	3,	-1,	-1,	-1,	23,	1,	20,	4,	-1,	-1,	-1,	-1,	-1,	-1,	-1,	-1,	-1,	-1,	-1,	-1,	-1,	-1,	30,	-1,	-1|
31,	-1,	-1,	-1,	-1,	-1,	-1,	-1,	1,	-1,	-1,	8,	-1,	-1,	-1,	35,	-1,	-1,	21,	-1,	-1,	-1,	13,	-1,	-1,	-1,	33,	-1,	-1,	-1,	-1,	-1,	-1,	-1,	-1,	-1|
-1,	-1,	-1,	-1,	-1,	-1,	-1,	-1,	-1,	-1,	21,	28,	-1,	-1,	-1,	-1,	-1,	-1,	-1,	-1,	10,	14,	-1,	-1,	-1,	-1,	-1,	27,	-1,	-1,	-1,	-1,	-1,	-1,	19,	-1|
-1,	-1,	-1,	-1,	-1,	-1,	-1,	-1,	33,	-1,	-1,	-1,	-1,	-1,	-1,	29,	-1,	-1,	-1,	19,	-1,	-1,	-1,	-1,	-1,	-1,	8,	-1,	-1,	-1,	-1,	-1,	-1,	-1,	-1,	10|
15,	-1,	-1,	-1,	-1,	29,	-1,	10,	12,	34,	-1,	-1,	-1,	-1,	-1,	-1,	-1,	-1,	-1,	-1,	4,	-1,	-1,	-1,	-1,	-1,	-1,	21,	-1,	-1,	-1,	-1,	26,	-1,	-1,	-1|
-1,	-1,	-1,	-1,	-1,	-1,	-1,	-1,	14,	-1,	-1,	-1,	-1,	-1,	-1,	-1,	7,	3,	-1,	-1,	-1,	11,	18,	-1,	-1,	-1,	-1,	-1,	-1,	-1,	16,	-1,	5,	-1,	-1,	-1|
-1,	-1,	-1,	-1,	-1,	2,	35,	20,	-1,	-1,	-1,	-1,	-1,	36,	-1,	-1,	-1,	-1,	-1,	-1,	-1,	-1,	-1,	-1,	-1,	-1,	7,	-1,	-1,	-1,	-1,	-1,	28,	-1,	-1,	-1|
3,	-1,	-1,	23,	-1,	-1,	-1,	2,	-1,	28,	-1,	-1,	-1,	-1,	-1,	-1,	15,	-1,	-1,	-1,	-1,	-1,	-1,	-1,	-1,	-1,	12,	16,	-1,	18,	-1,	9,	22,	-1,	-1,	-1|
-1,	-1,	-1,	-1,	-1,	-1,	25,	-1,	34,	-1,	-1,	-1,	-1,	-1,	17,	11,	-1,	30,	-1,	1,	22,	-1,	-1,	-1,	-1,	-1,	-1,	-1,	15,	-1,	4,	-1,	-1,	-1,	-1,	-1|
-1,	-1,	-1,	35,	-1,	-1,	-1,	-1,	-1,	-1,	-1,	-1,	-1,	-1,	22,	-1,	-1,	-1,	-1,	-1,	-1,	-1,	28,	17,	-1,	-1,	36,	-1,	-1,	-1,	-1,	-1,	-1,	-1,	-1,	-1|
-1,	-1,	-1,	-1,	15,	-1,	-1,	-1,	-1,	-1,	-1,	-1,	-1,	-1,	9,	-1,	-1,	-1,	-1,	-1,	-1,	-1,	10,	23,	24,	-1,	-1,	-1,	-1,	-1,	-1,	-1,	-1,	-1,	-1,	-1|
-1,	-1,	30,	-1,	16,	22,	-1,	36,	-1,	-1,	-1,	-1,	3,	-1,	-1,	-1,	-1,	-1,	-1,	-1,	-1,	-1,	-1,	-1,	-1,	-1,	-1,	33,	-1,	-1,	-1,	-1,	-1,	-1,	-1,	-1|
33,	-1,	28,	-1,	-1,	20,	-1,	-1,	8,	-1,	-1,	-1,	-1,	25,	-1,	-1,	-1,	-1,	14,	-1,	-1,	-1,	-1,	-1,	-1,	7,	-1,	9,	-1,	-1,	-1,	-1,	-1,	23,	-1,	-1|
-1,	30,	-1,	3,	-1,	-1,	-1,	-1,	16,	-1,	1,	-1,	-1,	-1,	-1,	2,	14,	-1,	-1,	-1,	-1,	-1,	-1,	-1,	6,	13,	-1,	-1,	-1,	-1,	-1,	-1,	15,	34,	12,	-1|
-1,	18,	-1,	-1,	5,	-1,	-1,	-1,	-1,	-1,	-1,	-1,	-1,	-1,	-1,	-1,	16,	-1,	30,	-1,	-1,	-1,	-1,	-1,	25,	27,	-1,	-1,	-1,	-1,	-1,	-1,	6,	-1,	13,	-1|
-1,	-1,	-1,	-1,	-1,	8,	-1,	-1,	-1,	-1,	9,	-1,	-1,	-1,	27,	-1,	-1,	-1,	12,	-1,	-1,	32,	-1,	-1,	-1,	20,	3,	-1,	-1,	-1,	-1,	10,	-1,	-1,	-1,	-1|
-1,	-1,	-1,	-1,	34,	-1,	-1,	-1,	-1,	-1,	-1,	-1,	-1,	-1,	-1,	-1,	-1,	-1,	-1,	-1,	31,	-1,	-1,	-1,	-1,	-1,	-1,	-1,	-1,	-1,	-1,	18,	-1,	-1,	-1,	-1|
-1,	-1,	-1,	-1,	-1,	-1,	14,	13,	-1,	-1,	-1,	-1,	-1,	-1,	-1,	-1,	-1,	29,	-1,	-1,	-1,	-1,	-1,	-1,	-1,	26,	-1,	-1,	-1,	-1,	-1,	-1,	23,	-1,	-1,	-1|
-1,	-1,	-1,	-1,	-1,	-1,	28,	-1,	-1,	-1,	-1,	17,	-1,	-1,	-1,	-1,	-1,	-1,	-1,	-1,	-1,	-1,	-1,	22,	-1,	14,	-1,	-1,	-1,	16,	19,	-1,	-1,	-1,	-1,	-1|
-1,	-1,	35,	26,	33,	6,	-1,	-1,	-1,	1,	18,	-1,	-1,	-1,	23,	-1,	22,	-1,	-1,	-1,	-1,	-1,	4,	-1,	-1,	-1,	-1,	-1,	-1,	-1,	-1,	-1,	-1,	29,	-1,	-1|
-1,	-1,	-1,	-1,	28,	11,	-1,	-1,	-1,	31,	32,	-1,	-1,	-1,	-1,	13,	2,	1,	-1,	18,	-1,	-1,	-1,	-1,	10,	-1,	25,	15,	-1,	-1,	-1,	-1,	-1,	-1,	9,	-1|
-1,	-1,	-1,	-1,	-1,	17,	9,	-1,	-1,	-1,	-1,	4,	-1,	-1,	-1,	-1,	-1,	33,	-1,	-1,	-1,	-1,	-1,	-1,	-1,	-1,	-1,	-1,	21,	-1,	-1,	-1,	-1,	-1,	-1,	-1|
-1,	-1,	-1,	-1,	-1,	-1,	8,	5,	-1,	-1,	10,	26,	-1,	-1,	19,	31,	-1,	-1,	-1,	9,	-1,	-1,	-1,	-1,	-1,	24,	-1,	18,	-1,	22,	-1,	-1,	-1,	-1,	-1,	-1|
-1,	-1,	-1,	-1,	-1,	-1,	-1,	29,	-1,	-1,	-1,	20,	-1,	-1,	-1,	-1,	-1,	15,	-1,	-1,	-1,	-1,	-1,	-1,	16,	-1,	-1,	-1,	-1,	-1,	-1,	26,	-1,	-1,	-1,	-1|
-1,	-1,	-1,	-1,	-1,	-1,	-1,	-1,	-1,	-1,	-1,	34,	-1,	-1,	-1,	-1,	-1,	-1,	1,	30,	-1,	-1,	-1,	31,	-1,	33,	20,	23,	-1,	4,	-1,	19,	-1,	-1,	-1,	-1|
-1,	-1,	15,	17,	-1,	-1,	-1,	-1,	7,	-1,	-1,	-1,	31,	-1,	-1,	-1,	-1,	10,	-1,	14,	23,	-1,	9,	-1,	-1,	-1,	-1,	-1,	-1,	-1,	-1,	24,	33,	-1,	-1,	-1|
-1,	-1,	-1,	-1,	-1,	-1,	-1,	-1,	-1,	-1,	-1,	-1,	-1,	7,	-1,	-1,	-1,	-1,	-1,	-1,	-1,	18,	-1,	-1,	21,	-1,	-1,	-1,	-1,	33,	-1,	-1,	-1,	-1,	-1,	-1|
-1,	-1,	-1,	-1,	-1,	-1,	-1,	-1,	-1,	-1,	-1,	-1,	20,	-1,	2,	-1,	-1,	-1,	33,	-1,	-1,	-1,	-1,	-1,	-1,	-1,	-1,	31,	-1,	-1,	-1,	27,	-1,	-1,	-1,	13|
35,	-1,	-1,	-1,	-1,	-1,	-1,	-1,	32,	-1,	-1,	-1,	-1,	-1,	-1,	-1,	8,	-1,	-1,	-1,	20,	-1,	-1,	-1,	12,	3,	-1,	-1,	-1,	-1,	-1,	-1,	-1,	11,	-1,	-1|
-1,	-1,	-1,	-1,	-1,	-1,	-1,	-1,	-1,	-1,	-1,	-1,	4,	-1,	-1,	-1,	19,	36,	-1,	-1,	30,	3,	32,	-1,	-1,	-1,	-1,	20,	-1,	-1,	-1,	-1,	-1,	21,	-1,	-1|
-1,	11,	12,	-1,	-1,	-1,	-1,	-1,	-1,	18,	-1,	-1,	-1,	-1,	-1,	1,	-1,	-1,	-1,	-1,	-1,	-1,	-1,	-1,	-1,	-1,	-1,	-1,	-1,	-1,	-1,	-1,	-1,	-1,	-1,	-1|];
